Set parameter TokenServer to value "hpc-licenses.hpcc.usc.edu"
Set parameter TimeLimit to value 3600
Gurobi Optimizer version 9.5.1 build v9.5.1rc2 (linux64)
Thread count: 20 physical cores, 20 logical processors, using up to 20 threads
Optimize a model with 6007 rows, 4529 columns and 24534 nonzeros
Model fingerprint: 0xa5a6ef8e
Variable types: 4506 continuous, 23 integer (23 binary)
Coefficient statistics:
  Matrix range     [1e+00, 1e+00]
  Objective range  [2e-04, 1e+00]
  Bounds range     [1e+00, 1e+00]
  RHS range        [1e+00, 2e+02]
Found heuristic solution: objective 219.1078095
Presolve removed 1520 rows and 1515 columns
Presolve time: 0.06s
Presolved: 4487 rows, 3014 columns, 21975 nonzeros
Variable types: 2994 continuous, 20 integer (20 binary)

Root relaxation: objective 2.339950e+02, 3041 iterations, 0.12 seconds (0.16 work units)

    Nodes    |    Current Node    |     Objective Bounds      |     Work
 Expl Unexpl |  Obj  Depth IntInf | Incumbent    BestBd   Gap | It/Node Time

     0     0  233.99501    0    2  219.10781  233.99501  6.79%     -    0s
H    0     0                     221.8423471  233.99501  5.48%     -    0s
     0     0  233.88855    0    2  221.84235  233.88855  5.43%     -    0s
     0     0  233.74450    0    3  221.84235  233.74450  5.37%     -    0s
H    0     0                     222.8227748  233.70325  4.88%     -    0s
     0     0  233.68067    0    3  222.82277  233.68067  4.87%     -    0s
H    0     0                     233.5522981  233.68067  0.05%     -    0s

Cutting planes:
  Gomory: 2
  MIR: 156
  Flow cover: 3
  RLT: 9
  Relax-and-lift: 1

Explored 1 nodes (3362 simplex iterations) in 0.63 seconds (0.50 work units)
Thread count was 20 (of 20 available processors)

Solution count 4: 233.552 222.823 221.842 219.108 

Optimal solution found (tolerance 1.00e-04)
Best objective 2.335522981033e+02, best bound 2.335522981033e+02, gap 0.0000%



#########node  1
V1.7
#########node  2
0.0,1.0
#########node  3
1.0,0.0


Total Solving Time 1.024111270904541
obj value 233.55229810331923
Policy Regret train (Sum) 4.147362670960024
Best Treatment Found train (%) 70.19999999999999
treatment classification acc train (%) 75.2
Policy Regret test (Sum) 63.74597884426457
Best Treatment Found test (%) 73.06
treatment classification acc test (%) 74.37
